(set-option :produce-assignments true)
(set-logic QF_UF)
(declare-const r Bool)
(declare-const s Bool)
(declare-const p Bool)
(assert (and (or r s p) (not r) (not s) ) )
(check-sat)
(get-value (r) )
(get-value (s) )
(get-value (p) )
